(declare-rel acos ( Real Real) )
(declare-rel acosh ( Real Real) )
(declare-rel asin ( Real Real) )
(declare-rel asinh ( Real Real) )
(declare-rel atan ( Real Real) )
(declare-rel atan2(Real Real Real) )
(declare-rel atanh ( Real Real) )
(declare-rel cbrt ( Real Real) )
(declare-rel cos ( Real Real) )
(declare-rel cosh ( Real Real) )
(declare-rel ceil ( Real Real) )
(declare-rel erf ( Real Real) )
(declare-rel fabs ( Real Real) )
(declare-rel floor ( Real Real) )
(declare-rel fmod (Real Real Real) )
(declare-rel tan ( Real Real) )
(declare-rel pow (Real Real Real) )
(declare-rel round ( Real Real) )
(declare-rel sin ( Real Real) )
(declare-rel sinh ( Real Real) )
(declare-rel sqrt ( Real Real) )
(declare-rel trunc ( Real Real) )
(declare-rel exp ( Real Real) )
(declare-rel log ( Real Real) )
(declare-rel log10 ( Real Real) )
(declare-rel tanh ( Real Real) )